unknown
(model
; cardinality of BoundSet is 2
(declare-sort BoundSet 0)
; rep: @uc_BoundSet_0
; rep: @uc_BoundSet_1
(declare-sort UnboundSet 0)
(define-fun IsCausedBy ((BOUND_VARIABLE_375 BoundSet) (BOUND_VARIABLE_376 BoundSet)) Bool true)
(define-fun IsTornDown ((BOUND_VARIABLE_385 BoundSet)) Bool false)
(define-fun IsReplacedWith ((BOUND_VARIABLE_375 BoundSet) (BOUND_VARIABLE_376 BoundSet)) Bool false)
(define-fun PreventsCancer ((BOUND_VARIABLE_375 BoundSet) (BOUND_VARIABLE_376 BoundSet)) Bool false)
)
sat
(model
; cardinality of BoundSet is 1
(declare-sort BoundSet 0)
; rep: @uc_BoundSet_0
(declare-sort UnboundSet 0)
(define-fun IsCausedBy ((BOUND_VARIABLE_430 BoundSet) (BOUND_VARIABLE_431 BoundSet)) Bool true)
(define-fun IsTornDown ((BOUND_VARIABLE_437 BoundSet)) Bool false)
(define-fun IsReplacedWith ((BOUND_VARIABLE_430 BoundSet) (BOUND_VARIABLE_431 BoundSet)) Bool true)
(define-fun PreventsCancer ((BOUND_VARIABLE_430 BoundSet) (BOUND_VARIABLE_431 BoundSet)) Bool true)
)
